21723
0 0 1 1 1 0 0 1 1 1 1 0 1 0 0 0 0 0 0 1 1 1 0 1 1 1 1 1 1 1 
7 19 21 27 2 12 21 27 27 28 4 28 10 3 28 7 3 20 27 27 27 21 23 24 10 27 27 19 29 2 19 19 4 21 27 12 20 8 24 21 7 9 12 4 8 19 3 21 19 20 24 24 24 21 8 12 25 9 27 7 29 2 7 8 3 25 23 19 28 25 7 12 19 9 23 23 20 23 8 24 10 2 9 25 29 10 19 2 27 7 28 19 25 25 2 3 28 12 2 28 28 21 25 7 4 24 4 24 27 3 19 4 27 12 12 8 28 7 28 8 26 25 28 19 26 21 2 12 26 28 28 24 25 20 23 9 3 3 28 10 12 27 12 25 25 2 24 21 27 25 24 28 23 28 8 28 2 21 3 3 3 27 10 24 23 27 23 4 3 21 23 20 19 10 26 2 24 10 29 10 2 21 2 19 12 8 28 23 27 21 2 21 19 4 7 12 7 21 10 19 

Total Run Time: 338509 ms.
